NAME : mEgtspf.pid25847.gtsp.159061536.tour
COMMENT : Length = 159061536
COMMENT : Found by LKH [Keld Helsgaun] Thu Mar 20 01:54:47 2025
TYPE : TOUR
DIMENSION : 90
TOUR_SECTION
1
10
57
58
55
56
36
37
38
35
69
70
67
68
8
72
73
74
71
22
19
20
21
9
15
16
17
18
7
3
62
59
60
61
6
88
89
90
87
25
26
23
24
34
31
32
33
2
27
28
29
30
75
76
77
78
39
40
41
42
50
47
48
49
46
43
44
45
85
86
83
84
53
54
51
52
82
79
80
81
4
12
13
14
11
5
66
63
64
65
-1
EOF
